c ! encoding i-pc 250
p cnf 588 1212
-251 0
251 -252 0
251 -253 0
251 -254 0
251 -255 0
251 -256 0
172 -257 0
207 -257 0
-212 -257 0
257 -258 0
126 -258 0
259 0
260 -261 0
261 -262 0
172 -262 0
-207 -263 0
-172 -263 0
262 263 -264 0
264 -266 0
265 -266 0
266 -267 0
-126 -267 0
258 267 -268 0
-27 -269 0
32 -269 0
270 -271 0
271 -272 0
-32 -272 0
269 272 -273 0
273 -275 0
274 -275 0
275 -276 0
247 -276 0
-32 -277 0
277 -278 0
270 -278 0
278 -279 0
-247 -279 0
276 279 -280 0
112 -281 0
282 -283 0
283 -284 0
-112 -284 0
281 284 -285 0
-48 -286 0
-183 -286 0
286 -287 0
43 -287 0
288 -289 0
289 -290 0
183 -290 0
-48 -291 0
-183 -291 0
290 291 -292 0
292 -294 0
293 -294 0
294 -295 0
-43 -295 0
287 295 -296 0
-3 -297 0
-6 -297 0
-14 -297 0
-19 -297 0
21 -297 0
26 -297 0
-30 -297 0
-33 -297 0
-38 -297 0
-41 -297 0
60 -297 0
-64 -297 0
65 -297 0
78 -297 0
-81 -297 0
93 -297 0
111 -297 0
118 -297 0
-120 -297 0
-122 -297 0
130 -297 0
132 -297 0
136 -297 0
-137 -297 0
138 -297 0
-144 -297 0
-147 -297 0
152 -297 0
-156 -297 0
158 -297 0
161 -297 0
165 -297 0
175 -297 0
-182 -297 0
-188 -297 0
-194 -297 0
200 -297 0
-216 -297 0
-217 -297 0
-219 -297 0
-222 -297 0
223 -297 0
-225 -297 0
233 -297 0
-243 -297 0
-248 -297 0
298 -306 0
299 -306 0
300 -306 0
301 -306 0
302 -306 0
303 -306 0
304 -306 0
305 -306 0
268 -307 0
280 -307 0
285 -307 0
296 -307 0
297 -307 0
306 -307 0
307 -308 0
256 308 -309 0
309 -310 0
166 -310 0
310 -311 0
255 311 -312 0
312 -313 0
251 -314 0
251 -315 0
251 -316 0
-3 -317 0
-14 -317 0
-26 -317 0
-38 -317 0
-126 -317 0
153 -317 0
317 -319 0
318 -319 0
319 -320 0
212 -320 0
126 -322 0
321 -322 0
322 -323 0
301 -323 0
323 -324 0
3 -324 0
321 -325 0
325 -326 0
126 -326 0
-26 -327 0
-126 -327 0
326 327 -328 0
328 -329 0
153 -329 0
329 -330 0
-3 -330 0
324 330 -331 0
-158 -334 0
332 -334 0
333 -334 0
334 -335 0
38 -335 0
-14 -336 0
336 -337 0
318 -337 0
337 -338 0
-38 -338 0
335 338 -339 0
331 -340 0
339 -340 0
340 -341 0
-212 -341 0
320 341 -342 0
44 -343 0
344 -345 0
345 -346 0
-44 -346 0
343 346 -347 0
348 -349 0
349 -350 0
168 -350 0
120 -351 0
-168 -351 0
350 351 -352 0
207 -355 0
353 -355 0
354 -355 0
355 -356 0
182 -356 0
132 -357 0
357 -358 0
260 -358 0
358 -359 0
-182 -359 0
356 359 -360 0
-2 -361 0
-6 -361 0
-7 -361 0
8 -361 0
-9 -361 0
-11 -361 0
-21 -361 0
-32 -361 0
45 -361 0
48 -361 0
55 -361 0
57 -361 0
84 -361 0
88 -361 0
95 -361 0
96 -361 0
104 -361 0
106 -361 0
-107 -361 0
-113 -361 0
114 -361 0
116 -361 0
118 -361 0
119 -361 0
-122 -361 0
125 -361 0
129 -361 0
137 -361 0
139 -361 0
140 -361 0
-147 -361 0
154 -361 0
-157 -361 0
-162 -361 0
165 -361 0
183 -361 0
-188 -361 0
197 -361 0
-200 -361 0
201 -361 0
208 -361 0
-218 -361 0
220 -361 0
222 -361 0
-223 -361 0
362 -366 0
363 -366 0
305 -366 0
300 -366 0
364 -366 0
365 -366 0
342 -367 0
347 -367 0
352 -367 0
360 -367 0
361 -367 0
366 -367 0
367 -368 0
-128 -368 0
316 368 -369 0
-5 -370 0
-27 -370 0
-58 -370 0
-91 -370 0
-93 -370 0
-102 -370 0
-117 -370 0
130 -370 0
-167 -370 0
175 -370 0
-187 -370 0
-199 -370 0
221 -370 0
-227 -370 0
369 -372 0
370 -372 0
371 -372 0
372 -373 0
251 -374 0
373 374 -375 0
51 -376 0
192 -376 0
219 -376 0
224 -376 0
228 -376 0
375 -377 0
376 -377 0
377 -378 0
315 378 -379 0
123 -380 0
379 -381 0
380 -381 0
381 -382 0
314 382 -383 0
383 -384 0
-24 -384 0
385 -386 0
251 -389 0
251 -394 0
251 -399 0
94 -401 0
251 -402 0
251 -403 0
251 -404 0
251 -405 0
251 -406 0
407 -408 0
408 -409 0
147 -409 0
222 -410 0
-147 -410 0
409 410 -411 0
118 -413 0
412 -413 0
413 -414 0
165 -414 0
415 -416 0
416 -417 0
122 -417 0
118 -418 0
-122 -418 0
417 418 -419 0
419 -420 0
-165 -420 0
414 420 -421 0
421 -422 0
246 -422 0
-118 -423 0
122 -423 0
-165 -423 0
423 -424 0
-246 -424 0
422 424 -425 0
-6 -426 0
-188 -426 0
427 -429 0
428 -429 0
425 -430 0
426 -430 0
429 -430 0
430 -431 0
219 -431 0
-137 -432 0
-200 -432 0
432 -433 0
6 -433 0
427 -434 0
428 -434 0
434 -435 0
-6 -435 0
433 435 -436 0
436 -437 0
188 -437 0
427 -438 0
428 -438 0
-6 -439 0
438 -439 0
439 -440 0
-188 -440 0
437 440 -441 0
421 -442 0
441 -442 0
246 -442 0
442 -443 0
-219 -443 0
431 443 -444 0
444 -445 0
371 -445 0
445 -446 0
130 -446 0
-172 -447 0
-219 -447 0
246 -447 0
421 -449 0
436 -449 0
447 -449 0
448 -449 0
449 -450 0
-130 -450 0
446 450 -451 0
-126 -452 0
212 -452 0
453 -454 0
454 -455 0
-212 -455 0
452 455 -456 0
411 -457 0
451 -457 0
456 -457 0
207 -457 0
457 -458 0
175 -458 0
207 -459 0
407 -459 0
459 -460 0
147 -460 0
222 -461 0
260 -461 0
461 -462 0
-147 -462 0
460 462 -463 0
463 -464 0
-126 -464 0
464 -465 0
212 -465 0
207 -466 0
453 -466 0
466 -467 0
407 -467 0
467 -468 0
147 -468 0
207 -469 0
126 -469 0
260 -470 0
470 -471 0
-126 -471 0
469 471 -472 0
472 -473 0
222 -473 0
473 -474 0
-147 -474 0
468 474 -475 0
475 -476 0
-212 -476 0
465 476 -477 0
425 -478 0
219 -478 0
421 -479 0
246 -479 0
479 -480 0
-219 -480 0
478 480 -481 0
427 -482 0
428 -482 0
481 -483 0
-6 -483 0
482 -483 0
483 -484 0
371 -484 0
484 -485 0
130 -485 0
421 -486 0
436 -486 0
447 -486 0
486 -487 0
-130 -487 0
485 487 -488 0
477 -489 0
488 -489 0
-188 -489 0
489 -490 0
-175 -490 0
458 490 -491 0
41 -492 0
-93 -492 0
192 -492 0
491 -493 0
492 -493 0
493 -494 0
82 -494 0
425 -495 0
426 -495 0
427 -495 0
495 -496 0
219 -496 0
-200 -497 0
6 -497 0
427 -498 0
498 -499 0
-6 -499 0
497 499 -500 0
500 -501 0
188 -501 0
-6 -502 0
427 -502 0
502 -503 0
-188 -503 0
501 503 -504 0
421 -505 0
504 -505 0
246 -505 0
505 -506 0
-219 -506 0
496 506 -507 0
-93 -508 0
371 -508 0
508 -509 0
41 -509 0
172 -510 0
93 -510 0
371 -511 0
511 -512 0
-93 -512 0
510 512 -513 0
513 -514 0
-41 -514 0
509 514 -515 0
507 -516 0
515 -516 0
516 -517 0
130 -517 0
-93 -518 0
-172 -518 0
518 -519 0
41 -519 0
172 -520 0
93 -520 0
-172 -521 0
-93 -521 0
520 521 -522 0
522 -523 0
-41 -523 0
519 523 -524 0
-219 -525 0
246 -525 0
421 -526 0
524 -526 0
500 -526 0
525 -526 0
448 -526 0
526 -527 0
-130 -527 0
517 527 -528 0
411 -529 0
528 -529 0
456 -529 0
207 -529 0
529 -530 0
175 -530 0
481 -531 0
-6 -531 0
427 -531 0
531 -532 0
371 -532 0
532 -533 0
130 -533 0
421 -534 0
500 -534 0
447 -534 0
534 -535 0
-130 -535 0
533 535 -536 0
-93 -537 0
-188 -537 0
477 -538 0
536 -538 0
537 -538 0
362 -538 0
538 -539 0
-175 -539 0
530 539 -540 0
540 -541 0
-137 -541 0
541 -542 0
298 -542 0
542 -543 0
-82 -543 0
494 543 -544 0
134 -545 0
546 -547 0
547 -548 0
-134 -548 0
545 548 -549 0
3 -550 0
14 -550 0
22 -550 0
26 -550 0
27 -550 0
32 -550 0
36 -550 0
38 -550 0
-48 -550 0
-70 -550 0
83 -550 0
-89 -550 0
101 -550 0
115 -550 0
-119 -550 0
-120 -550 0
-121 -550 0
127 -550 0
-132 -550 0
148 -550 0
150 -550 0
170 -550 0
-178 -550 0
-180 -550 0
182 -550 0
-183 -550 0
193 -550 0
-197 -550 0
203 -550 0
-210 -550 0
-215 -550 0
231 -550 0
-236 -550 0
300 -555 0
551 -555 0
318 -555 0
552 -555 0
553 -555 0
301 -555 0
554 -555 0
544 -556 0
549 -556 0
550 -556 0
555 -556 0
556 -557 0
406 557 -558 0
-109 -559 0
558 -560 0
559 -560 0
560 -561 0
251 -562 0
561 562 -563 0
42 -564 0
563 -565 0
564 -565 0
565 -566 0
-149 -566 0
405 566 -567 0
567 -569 0
251 -571 0
230 -573 0
573 -574 0
151 -577 0
577 -578 0
251 -585 0
-94 -587 0
588 0
4 0
10 0
-12 0
-13 0
20 0
-28 0
-29 0
-34 0
-35 0
-37 0
39 0
-40 0
46 0
-47 0
50 0
-52 0
54 0
56 0
-59 0
-61 0
-63 0
-66 0
-67 0
68 0
-69 0
-73 0
74 0
-75 0
-76 0
-77 0
79 0
-80 0
86 0
-87 0
-90 0
92 0
-97 0
-98 0
-99 0
-100 0
-103 0
-105 0
108 0
110 0
124 0
131 0
-133 0
-135 0
141 0
-142 0
143 0
-145 0
-146 0
155 0
-160 0
-163 0
164 0
-169 0
-173 0
174 0
-176 0
177 0
179 0
181 0
185 0
-186 0
-189 0
-190 0
-191 0
-195 0
198 0
-202 0
-204 0
-205 0
-206 0
209 0
213 0
214 0
-226 0
-229 0
-232 0
-234 0
-237 0
-238 0
-239 0
-241 0
-242 0
-244 0
245 0
-249 0
250 0
-577 578 0
-573 574 0
149 566 0
-565 566 0
-564 565 0
-559 560 0
-558 560 0
-556 557 0
-555 556 0
-553 555 0
-71 552 0
240 551 0
236 550 0
-231 550 0
215 550 0
210 550 0
-203 550 0
-170 550 0
-150 550 0
-148 550 0
-127 550 0
121 550 0
-115 550 0
-101 550 0
89 550 0
134 548 0
-546 547 0
-49 546 0
-545 549 0
-544 556 0
-541 542 0
-540 541 0
-539 540 0
-538 539 0
-537 538 0
-535 536 0
-531 532 0
-530 540 0
-529 530 0
-528 529 0
-527 528 0
-525 526 0
-523 524 0
-522 523 0
-521 522 0
-520 522 0
-519 524 0
-517 528 0
-516 517 0
-515 516 0
-513 514 0
-512 513 0
-550 556 0
-511 512 0
-509 515 0
-507 516 0
-506 507 0
-503 504 0
-502 503 0
-499 500 0
-497 500 0
-495 496 0
-494 544 0
178 550 0
-493 494 0
-492 493 0
-491 493 0
-490 491 0
-489 490 0
-488 489 0
-487 488 0
-486 487 0
-485 488 0
-230 573 0
-484 485 0
-456 457 529 0
-454 455 0
-452 456 0
-451 457 0
-450 451 0
130 450 487 527 535 0
-448 449 526 0
-549 556 0
-447 449 486 534 0
-445 446 0
-444 445 0
-443 444 0
-441 442 0
-440 441 0
-439 440 0
-438 439 0
-188 437 448 501 0
-436 437 449 486 0
-434 435 0
-433 436 0
-430 431 0
-428 429 434 438 482 0
-427 429 434 438 482 495 498 502 531 0
-426 430 495 0
-424 425 0
246 424 0
-423 424 0
-422 425 0
-421 422 442 449 479 486 505 526 534 0
-420 421 0
165 420 423 0
-418 419 0
-508 509 0
-455 456 0
85 364 0
-583 584 0
-476 477 0
-385 386 0
-158 297 318 0
-457 458 0
-367 368 0
-446 451 0
-548 549 0
-363 366 0
-518 519 0
-303 306 0
-84 361 0
-130 297 370 446 485 517 533 0
-222 361 407 410 461 473 0
-372 373 0
17 394 579 0
216 297 0
122 297 361 412 418 0
-500 501 526 534 0
-208 361 0
-543 544 0
-207 257 260 355 457 459 466 469 529 0
-111 297 0
-6 433 497 0
-435 436 0
-425 430 478 495 0
200 361 427 432 497 0
199 370 0
194 297 0
-429 430 0
-192 298 376 492 0
-308 309 0
-183 290 361 0
188 297 361 426 440 448 489 503 537 0
-42 564 0
-557 558 0
-175 297 370 458 530 0
137 297 428 432 541 0
-136 297 0
25 386 568 0
-349 350 0
-166 310 315 0
-329 330 0
-312 313 0
-65 297 0
-576 578 0
-471 472 0
-378 379 0
64 297 0
-304 306 0
112 284 0
175 490 539 0
-400 401 0
-536 538 0
-265 266 0
-280 307 0
247 279 0
-554 555 0
-264 266 0
-396 397 0
-278 279 0
183 286 291 550 0
-220 361 0
-449 450 0
-275 276 0
-569 570 0
-460 463 0
-292 294 0
-32 269 550 0
-268 307 0
-114 361 0
-270 271 278 0
-165 297 361 414 0
72 353 0
-138 297 0
-356 360 0
-281 285 0
147 297 361 410 462 474 0
-419 420 0
196 303 0
-104 361 0
-331 340 0
118 415 423 0
-567 569 0
-461 462 0
-291 292 0
-501 504 0
182 297 359 0
-302 306 0
-267 268 0
-83 550 0
-283 284 0
-200 297 427 0
107 361 0
-279 280 0
-463 464 0
-294 295 0
-109 305 0
-330 331 0
-437 441 0
-23 252 402 0
-368 369 0
-36 550 0
-272 273 0
-260 261 358 461 470 0
-193 255 314 550 0
-579 580 0
-467 468 0
-563 565 0
-289 290 0
-17 393 403 0
-22 550 0
-532 533 0
7 361 0
-584 586 0
-477 489 538 0
157 361 0
-432 433 0
-262 264 0
-152 297 0
27 269 270 370 0
-276 280 0
-126 258 322 326 453 469 0
-18 293 0
-359 360 0
218 361 0
-524 526 0
-505 506 0
184 399 585 0
-27 270 550 0
-263 264 0
-269 273 0
-235 253 404 0
3 297 317 330 0
-48 288 361 0
-271 272 0
-274 275 0
-140 361 0
-172 257 262 371 510 520 0
144 297 0
-284 285 0
-123 256 380 406 0
-261 262 0
-286 287 0
156 297 0
-257 258 0
167 370 0
212 257 265 341 455 476 0
-120 348 351 0
-360 367 0
-259 261 271 283 289 325 345 349 408 416 434 454 470 498 511 547 0
-482 483 0
-386 387 0
-282 283 0
-212 265 320 452 465 0
1 282 0
-26 297 321 550 0
126 267 317 327 452 453 464 471 0
-219 376 431 478 496 0
-53 274 0
-273 275 0
19 297 0
207 260 263 0
-266 267 0
-171 300 0
-288 289 0
43 295 0
172 263 371 447 518 521 0
93 370 492 508 512 518 521 537 0
-25 254 0
-570 572 0
-462 463 0
-321 322 325 0
211 332 0
6 297 361 426 435 439 483 499 502 531 0
-60 297 0
-408 409 0
-510 513 0
-258 268 0
33 297 0
-391 392 0
-526 527 0
-552 555 0
-498 499 0
-566 567 0
-459 460 0
-290 292 0
30 297 0
-285 307 0
70 550 0
-333 334 0
-533 536 0
162 361 0
-298 306 542 0
-442 443 0
-78 297 0
-324 331 0
-547 548 0
-348 349 0
38 297 317 338 0
-534 535 0
-337 338 0
-116 361 0
-572 574 0
-464 465 0
219 297 443 447 480 506 525 0
-287 296 0
-293 294 0
-161 297 0
-410 411 0
32 272 277 361 0
-338 339 0
-350 352 0
-345 346 0
-125 361 0
-129 361 0
-373 375 0
222 297 407 0
-475 476 0
-483 484 0
-327 328 0
-395 396 0
-233 297 0
-481 483 531 0
-390 391 0
171 300 0
-364 366 0
243 297 374 562 0
-246 297 361 422 442 447 479 505 525 0
248 297 0
-568 569 0
-361 367 0
-297 307 0
-417 419 0
192 298 0
-407 408 459 467 0
-514 515 0
-16 299 0
153 301 0
-306 307 0
-369 372 0
-586 587 0
-479 480 0
-387 388 0
109 305 559 0
-305 306 366 0
-319 320 0
-354 355 0
-93 297 510 520 0
-309 310 0
-310 311 0
-311 312 0
-151 577 0
26 317 321 327 0
-317 319 0
-353 355 0
2 361 0
158 318 334 0
117 370 0
-318 319 337 555 0
-82 494 0
41 297 362 514 523 0
-357 358 0
-320 342 0
-362 366 538 0
-322 323 0
-323 324 0
-3 324 550 0
180 550 0
-301 306 323 555 0
-325 326 0
-326 328 0
-328 329 0
-332 334 0
-334 335 0
81 297 0
-41 362 492 509 519 0
-277 278 0
-38 335 550 0
-393 395 0
-478 481 0
-388 390 0
-335 339 0
-336 337 0
-339 340 0
-347 367 0
-139 361 0
-340 341 0
-341 342 0
-342 367 0
-431 444 0
-343 347 0
58 370 0
15 344 0
-542 543 0
-344 345 0
-365 366 0
-14 333 550 0
44 346 0
-346 347 0
168 351 0
-351 352 0
-352 367 0
-122 412 417 423 0
132 354 550 0
-355 356 0
-182 356 550 0
11 361 0
-358 359 0
-8 361 0
-582 583 0
-465 477 0
-96 361 0
-561 563 0
-45 361 0
-299 306 0
-55 361 0
-57 361 0
9 361 0
-88 361 0
-95 361 0
187 370 0
-106 361 0
113 361 0
-137 361 428 0
-154 361 0
-201 361 0
-551 555 0
31 363 0
-504 505 0
-62 365 0
-366 367 0
128 368 0
-221 370 0
217 297 0
5 370 0
-575 576 0
-469 472 0
-307 308 0
91 370 0
-496 507 0
102 370 0
-560 561 0
-453 454 466 0
227 370 0
-458 491 0
-370 372 0
-371 372 445 484 508 511 532 0
-574 575 0
-466 467 0
-295 296 0
-375 377 0
-51 376 0
-228 376 0
-376 377 0
-409 411 0
-578 579 0
-472 473 0
-153 301 317 329 0
-379 381 0
225 297 0
-380 381 0
-473 474 0
-381 382 0
-580 581 0
-468 475 0
-224 376 0
-382 383 0
-470 471 0
-296 307 0
-377 378 0
-581 582 0
-474 475 0
-383 384 0
24 384 0
159 389 571 0
-480 481 0
-392 393 0
-397 398 0
-398 400 0
-147 409 460 468 0
-411 457 529 0
-412 413 0
-413 414 0
-414 421 0
-415 416 0
-416 417 0
